p cnf 457 2091
c p weight 186 0 0
c p weight -186 1 0
c p weight 187 1 0
c p weight -187 1 0
c p weight 454 -1 0
c p weight -454 1 0
c p weight 457 0.5 0
457 0
-181 0
-179 0
-177 0
-175 0
-173 0
-171 0
-169 0
-167 0
-165 0
-163 0
-161 0
-159 0
-157 0
-155 0
-153 0
-151 0
-149 0
-147 0
-145 0
-143 0
-141 0
-139 0
-137 0
-135 0
-133 0
-131 0
-129 0
-127 0
-125 0
-123 0
-121 0
-119 0
-117 0
-115 0
-113 0
-111 0
-109 0
-107 0
-105 0
-103 0
-101 0
-99 0
-97 0
-95 0
-93 0
-91 0
-89 0
-87 0
-85 0
-83 0
-81 0
-79 0
-77 0
-75 0
-73 0
-71 0
-69 0
-67 0
-65 0
-63 0
-61 0
-59 0
-57 0
-55 0
-53 0
-51 0
-49 0
-47 0
-45 0
-43 0
-41 0
-39 0
-37 0
-35 0
-33 0
-31 0
-29 0
-27 0
-25 0
-23 0
-21 0
-19 0
-17 0
-15 0
-13 0
-11 0
-9 0
-7 0
-5 0
-3 0
-1 0
182 -181 179 0
182 -181 180 0
-182 181 179 0
-182 181 180 0
182 181 -179 -180 0
-182 -181 -179 -180 0
183 179 -180 0
183 -179 180 0
-183 179 180 0
-183 -179 -180 0
184 185 -182 0
184 -182 183 0
-184 185 182 0
-184 182 183 0
184 -182 -179 0
-184 182 -179 0
184 -185 182 179 -183 0
-184 -185 -182 179 -183 0
185 -179 183 0
-185 179 183 0
-186 183 0
185 -186 -179 0
-185 -186 179 0
185 186 179 -183 0
-185 186 -179 -183 0
-187 183 0
185 -187 179 0
-185 -187 -179 0
185 187 -179 -183 0
-185 187 179 -183 0
188 -184 185 0
188 -184 183 0
-188 184 185 0
-188 184 183 0
188 184 -185 -183 0
-188 -184 -185 -183 0
189 185 -183 0
189 -185 183 0
-189 185 183 0
-189 -185 -183 0
190 -188 185 0
190 -188 178 0
-190 188 185 0
-190 188 178 0
190 -188 177 -189 0
190 -188 -177 189 0
-190 188 177 -189 0
-190 188 -177 189 0
190 188 -185 177 189 -178 0
190 188 -185 -177 -189 -178 0
-190 -188 -185 177 189 -178 0
-190 -188 -185 -177 -189 -178 0
192 185 -177 0
192 -185 177 0
-192 185 177 0
-192 -185 -177 0
191 189 -178 0
191 -189 178 0
-191 189 178 0
-191 -189 -178 0
193 -190 192 0
193 -190 176 0
-193 190 192 0
-193 190 176 0
193 -190 175 -178 0
193 -190 -175 178 0
-193 190 175 -178 0
-193 190 -175 178 0
193 190 -192 175 178 -176 0
193 190 -192 -175 -178 -176 0
-193 -190 -192 175 178 -176 0
-193 -190 -192 -175 -178 -176 0
195 192 -175 0
195 -192 175 0
-195 192 175 0
-195 -192 -175 0
194 178 -176 0
194 -178 176 0
-194 178 176 0
-194 -178 -176 0
196 -193 195 0
196 -193 174 0
-196 193 195 0
-196 193 174 0
196 -193 173 -176 0
196 -193 -173 176 0
-196 193 173 -176 0
-196 193 -173 176 0
196 193 -195 173 176 -174 0
196 193 -195 -173 -176 -174 0
-196 -193 -195 173 176 -174 0
-196 -193 -195 -173 -176 -174 0
198 195 -173 0
198 -195 173 0
-198 195 173 0
-198 -195 -173 0
197 176 -174 0
197 -176 174 0
-197 176 174 0
-197 -176 -174 0
199 -196 198 0
199 -196 172 0
-199 196 198 0
-199 196 172 0
199 -196 171 -174 0
199 -196 -171 174 0
-199 196 171 -174 0
-199 196 -171 174 0
199 196 -198 171 174 -172 0
199 196 -198 -171 -174 -172 0
-199 -196 -198 171 174 -172 0
-199 -196 -198 -171 -174 -172 0
201 198 -171 0
201 -198 171 0
-201 198 171 0
-201 -198 -171 0
200 174 -172 0
200 -174 172 0
-200 174 172 0
-200 -174 -172 0
202 -199 201 0
202 -199 170 0
-202 199 201 0
-202 199 170 0
202 -199 169 -172 0
202 -199 -169 172 0
-202 199 169 -172 0
-202 199 -169 172 0
202 199 -201 169 172 -170 0
202 199 -201 -169 -172 -170 0
-202 -199 -201 169 172 -170 0
-202 -199 -201 -169 -172 -170 0
204 201 -169 0
204 -201 169 0
-204 201 169 0
-204 -201 -169 0
203 172 -170 0
203 -172 170 0
-203 172 170 0
-203 -172 -170 0
205 -202 204 0
205 -202 168 0
-205 202 204 0
-205 202 168 0
205 -202 167 -170 0
205 -202 -167 170 0
-205 202 167 -170 0
-205 202 -167 170 0
205 202 -204 167 170 -168 0
205 202 -204 -167 -170 -168 0
-205 -202 -204 167 170 -168 0
-205 -202 -204 -167 -170 -168 0
207 204 -167 0
207 -204 167 0
-207 204 167 0
-207 -204 -167 0
206 170 -168 0
206 -170 168 0
-206 170 168 0
-206 -170 -168 0
208 -205 207 0
208 -205 166 0
-208 205 207 0
-208 205 166 0
208 -205 165 -168 0
208 -205 -165 168 0
-208 205 165 -168 0
-208 205 -165 168 0
208 205 -207 165 168 -166 0
208 205 -207 -165 -168 -166 0
-208 -205 -207 165 168 -166 0
-208 -205 -207 -165 -168 -166 0
210 207 -165 0
210 -207 165 0
-210 207 165 0
-210 -207 -165 0
209 168 -166 0
209 -168 166 0
-209 168 166 0
-209 -168 -166 0
211 -208 210 0
211 -208 164 0
-211 208 210 0
-211 208 164 0
211 -208 163 -166 0
211 -208 -163 166 0
-211 208 163 -166 0
-211 208 -163 166 0
211 208 -210 163 166 -164 0
211 208 -210 -163 -166 -164 0
-211 -208 -210 163 166 -164 0
-211 -208 -210 -163 -166 -164 0
213 210 -163 0
213 -210 163 0
-213 210 163 0
-213 -210 -163 0
212 166 -164 0
212 -166 164 0
-212 166 164 0
-212 -166 -164 0
214 -211 213 0
214 -211 162 0
-214 211 213 0
-214 211 162 0
214 -211 161 -164 0
214 -211 -161 164 0
-214 211 161 -164 0
-214 211 -161 164 0
214 211 -213 161 164 -162 0
214 211 -213 -161 -164 -162 0
-214 -211 -213 161 164 -162 0
-214 -211 -213 -161 -164 -162 0
216 213 -161 0
216 -213 161 0
-216 213 161 0
-216 -213 -161 0
215 164 -162 0
215 -164 162 0
-215 164 162 0
-215 -164 -162 0
217 -214 216 0
217 -214 160 0
-217 214 216 0
-217 214 160 0
217 -214 159 -162 0
217 -214 -159 162 0
-217 214 159 -162 0
-217 214 -159 162 0
217 214 -216 159 162 -160 0
217 214 -216 -159 -162 -160 0
-217 -214 -216 159 162 -160 0
-217 -214 -216 -159 -162 -160 0
219 216 -159 0
219 -216 159 0
-219 216 159 0
-219 -216 -159 0
218 162 -160 0
218 -162 160 0
-218 162 160 0
-218 -162 -160 0
220 -217 219 0
220 -217 158 0
-220 217 219 0
-220 217 158 0
220 -217 157 -160 0
220 -217 -157 160 0
-220 217 157 -160 0
-220 217 -157 160 0
220 217 -219 157 160 -158 0
220 217 -219 -157 -160 -158 0
-220 -217 -219 157 160 -158 0
-220 -217 -219 -157 -160 -158 0
222 219 -157 0
222 -219 157 0
-222 219 157 0
-222 -219 -157 0
221 160 -158 0
221 -160 158 0
-221 160 158 0
-221 -160 -158 0
223 -220 222 0
223 -220 156 0
-223 220 222 0
-223 220 156 0
223 -220 155 -158 0
223 -220 -155 158 0
-223 220 155 -158 0
-223 220 -155 158 0
223 220 -222 155 158 -156 0
223 220 -222 -155 -158 -156 0
-223 -220 -222 155 158 -156 0
-223 -220 -222 -155 -158 -156 0
225 222 -155 0
225 -222 155 0
-225 222 155 0
-225 -222 -155 0
224 158 -156 0
224 -158 156 0
-224 158 156 0
-224 -158 -156 0
226 -223 225 0
226 -223 154 0
-226 223 225 0
-226 223 154 0
226 -223 153 -156 0
226 -223 -153 156 0
-226 223 153 -156 0
-226 223 -153 156 0
226 223 -225 153 156 -154 0
226 223 -225 -153 -156 -154 0
-226 -223 -225 153 156 -154 0
-226 -223 -225 -153 -156 -154 0
228 225 -153 0
228 -225 153 0
-228 225 153 0
-228 -225 -153 0
227 156 -154 0
227 -156 154 0
-227 156 154 0
-227 -156 -154 0
229 -226 228 0
229 -226 152 0
-229 226 228 0
-229 226 152 0
229 -226 151 -154 0
229 -226 -151 154 0
-229 226 151 -154 0
-229 226 -151 154 0
229 226 -228 151 154 -152 0
229 226 -228 -151 -154 -152 0
-229 -226 -228 151 154 -152 0
-229 -226 -228 -151 -154 -152 0
231 228 -151 0
231 -228 151 0
-231 228 151 0
-231 -228 -151 0
230 154 -152 0
230 -154 152 0
-230 154 152 0
-230 -154 -152 0
232 -229 231 0
232 -229 150 0
-232 229 231 0
-232 229 150 0
232 -229 149 -152 0
232 -229 -149 152 0
-232 229 149 -152 0
-232 229 -149 152 0
232 229 -231 149 152 -150 0
232 229 -231 -149 -152 -150 0
-232 -229 -231 149 152 -150 0
-232 -229 -231 -149 -152 -150 0
234 231 -149 0
234 -231 149 0
-234 231 149 0
-234 -231 -149 0
233 152 -150 0
233 -152 150 0
-233 152 150 0
-233 -152 -150 0
235 -232 234 0
235 -232 148 0
-235 232 234 0
-235 232 148 0
235 -232 147 -150 0
235 -232 -147 150 0
-235 232 147 -150 0
-235 232 -147 150 0
235 232 -234 147 150 -148 0
235 232 -234 -147 -150 -148 0
-235 -232 -234 147 150 -148 0
-235 -232 -234 -147 -150 -148 0
237 234 -147 0
237 -234 147 0
-237 234 147 0
-237 -234 -147 0
236 150 -148 0
236 -150 148 0
-236 150 148 0
-236 -150 -148 0
238 -235 237 0
238 -235 146 0
-238 235 237 0
-238 235 146 0
238 -235 145 -148 0
238 -235 -145 148 0
-238 235 145 -148 0
-238 235 -145 148 0
238 235 -237 145 148 -146 0
238 235 -237 -145 -148 -146 0
-238 -235 -237 145 148 -146 0
-238 -235 -237 -145 -148 -146 0
240 237 -145 0
240 -237 145 0
-240 237 145 0
-240 -237 -145 0
239 148 -146 0
239 -148 146 0
-239 148 146 0
-239 -148 -146 0
241 -238 240 0
241 -238 144 0
-241 238 240 0
-241 238 144 0
241 -238 143 -146 0
241 -238 -143 146 0
-241 238 143 -146 0
-241 238 -143 146 0
241 238 -240 143 146 -144 0
241 238 -240 -143 -146 -144 0
-241 -238 -240 143 146 -144 0
-241 -238 -240 -143 -146 -144 0
243 240 -143 0
243 -240 143 0
-243 240 143 0
-243 -240 -143 0
242 146 -144 0
242 -146 144 0
-242 146 144 0
-242 -146 -144 0
244 -241 243 0
244 -241 142 0
-244 241 243 0
-244 241 142 0
244 -241 141 -144 0
244 -241 -141 144 0
-244 241 141 -144 0
-244 241 -141 144 0
244 241 -243 141 144 -142 0
244 241 -243 -141 -144 -142 0
-244 -241 -243 141 144 -142 0
-244 -241 -243 -141 -144 -142 0
246 243 -141 0
246 -243 141 0
-246 243 141 0
-246 -243 -141 0
245 144 -142 0
245 -144 142 0
-245 144 142 0
-245 -144 -142 0
247 -244 246 0
247 -244 140 0
-247 244 246 0
-247 244 140 0
247 -244 139 -142 0
247 -244 -139 142 0
-247 244 139 -142 0
-247 244 -139 142 0
247 244 -246 139 142 -140 0
247 244 -246 -139 -142 -140 0
-247 -244 -246 139 142 -140 0
-247 -244 -246 -139 -142 -140 0
249 246 -139 0
249 -246 139 0
-249 246 139 0
-249 -246 -139 0
248 142 -140 0
248 -142 140 0
-248 142 140 0
-248 -142 -140 0
250 -247 249 0
250 -247 138 0
-250 247 249 0
-250 247 138 0
250 -247 137 -140 0
250 -247 -137 140 0
-250 247 137 -140 0
-250 247 -137 140 0
250 247 -249 137 140 -138 0
250 247 -249 -137 -140 -138 0
-250 -247 -249 137 140 -138 0
-250 -247 -249 -137 -140 -138 0
252 249 -137 0
252 -249 137 0
-252 249 137 0
-252 -249 -137 0
251 140 -138 0
251 -140 138 0
-251 140 138 0
-251 -140 -138 0
253 -250 252 0
253 -250 136 0
-253 250 252 0
-253 250 136 0
253 -250 135 -138 0
253 -250 -135 138 0
-253 250 135 -138 0
-253 250 -135 138 0
253 250 -252 135 138 -136 0
253 250 -252 -135 -138 -136 0
-253 -250 -252 135 138 -136 0
-253 -250 -252 -135 -138 -136 0
255 252 -135 0
255 -252 135 0
-255 252 135 0
-255 -252 -135 0
254 138 -136 0
254 -138 136 0
-254 138 136 0
-254 -138 -136 0
256 -253 255 0
256 -253 134 0
-256 253 255 0
-256 253 134 0
256 -253 133 -136 0
256 -253 -133 136 0
-256 253 133 -136 0
-256 253 -133 136 0
256 253 -255 133 136 -134 0
256 253 -255 -133 -136 -134 0
-256 -253 -255 133 136 -134 0
-256 -253 -255 -133 -136 -134 0
258 255 -133 0
258 -255 133 0
-258 255 133 0
-258 -255 -133 0
257 136 -134 0
257 -136 134 0
-257 136 134 0
-257 -136 -134 0
259 -256 258 0
259 -256 132 0
-259 256 258 0
-259 256 132 0
259 -256 131 -134 0
259 -256 -131 134 0
-259 256 131 -134 0
-259 256 -131 134 0
259 256 -258 131 134 -132 0
259 256 -258 -131 -134 -132 0
-259 -256 -258 131 134 -132 0
-259 -256 -258 -131 -134 -132 0
261 258 -131 0
261 -258 131 0
-261 258 131 0
-261 -258 -131 0
260 134 -132 0
260 -134 132 0
-260 134 132 0
-260 -134 -132 0
262 -259 261 0
262 -259 130 0
-262 259 261 0
-262 259 130 0
262 -259 129 -132 0
262 -259 -129 132 0
-262 259 129 -132 0
-262 259 -129 132 0
262 259 -261 129 132 -130 0
262 259 -261 -129 -132 -130 0
-262 -259 -261 129 132 -130 0
-262 -259 -261 -129 -132 -130 0
264 261 -129 0
264 -261 129 0
-264 261 129 0
-264 -261 -129 0
263 132 -130 0
263 -132 130 0
-263 132 130 0
-263 -132 -130 0
265 -262 264 0
265 -262 128 0
-265 262 264 0
-265 262 128 0
265 -262 127 -130 0
265 -262 -127 130 0
-265 262 127 -130 0
-265 262 -127 130 0
265 262 -264 127 130 -128 0
265 262 -264 -127 -130 -128 0
-265 -262 -264 127 130 -128 0
-265 -262 -264 -127 -130 -128 0
267 264 -127 0
267 -264 127 0
-267 264 127 0
-267 -264 -127 0
266 130 -128 0
266 -130 128 0
-266 130 128 0
-266 -130 -128 0
268 -265 267 0
268 -265 126 0
-268 265 267 0
-268 265 126 0
268 -265 125 -128 0
268 -265 -125 128 0
-268 265 125 -128 0
-268 265 -125 128 0
268 265 -267 125 128 -126 0
268 265 -267 -125 -128 -126 0
-268 -265 -267 125 128 -126 0
-268 -265 -267 -125 -128 -126 0
270 267 -125 0
270 -267 125 0
-270 267 125 0
-270 -267 -125 0
269 128 -126 0
269 -128 126 0
-269 128 126 0
-269 -128 -126 0
271 -268 270 0
271 -268 124 0
-271 268 270 0
-271 268 124 0
271 -268 123 -126 0
271 -268 -123 126 0
-271 268 123 -126 0
-271 268 -123 126 0
271 268 -270 123 126 -124 0
271 268 -270 -123 -126 -124 0
-271 -268 -270 123 126 -124 0
-271 -268 -270 -123 -126 -124 0
273 270 -123 0
273 -270 123 0
-273 270 123 0
-273 -270 -123 0
272 126 -124 0
272 -126 124 0
-272 126 124 0
-272 -126 -124 0
274 -271 273 0
274 -271 122 0
-274 271 273 0
-274 271 122 0
274 -271 121 -124 0
274 -271 -121 124 0
-274 271 121 -124 0
-274 271 -121 124 0
274 271 -273 121 124 -122 0
274 271 -273 -121 -124 -122 0
-274 -271 -273 121 124 -122 0
-274 -271 -273 -121 -124 -122 0
276 273 -121 0
276 -273 121 0
-276 273 121 0
-276 -273 -121 0
275 124 -122 0
275 -124 122 0
-275 124 122 0
-275 -124 -122 0
277 -274 276 0
277 -274 120 0
-277 274 276 0
-277 274 120 0
277 -274 119 -122 0
277 -274 -119 122 0
-277 274 119 -122 0
-277 274 -119 122 0
277 274 -276 119 122 -120 0
277 274 -276 -119 -122 -120 0
-277 -274 -276 119 122 -120 0
-277 -274 -276 -119 -122 -120 0
279 276 -119 0
279 -276 119 0
-279 276 119 0
-279 -276 -119 0
278 122 -120 0
278 -122 120 0
-278 122 120 0
-278 -122 -120 0
280 -277 279 0
280 -277 118 0
-280 277 279 0
-280 277 118 0
280 -277 117 -120 0
280 -277 -117 120 0
-280 277 117 -120 0
-280 277 -117 120 0
280 277 -279 117 120 -118 0
280 277 -279 -117 -120 -118 0
-280 -277 -279 117 120 -118 0
-280 -277 -279 -117 -120 -118 0
282 279 -117 0
282 -279 117 0
-282 279 117 0
-282 -279 -117 0
281 120 -118 0
281 -120 118 0
-281 120 118 0
-281 -120 -118 0
283 -280 282 0
283 -280 116 0
-283 280 282 0
-283 280 116 0
283 -280 115 -118 0
283 -280 -115 118 0
-283 280 115 -118 0
-283 280 -115 118 0
283 280 -282 115 118 -116 0
283 280 -282 -115 -118 -116 0
-283 -280 -282 115 118 -116 0
-283 -280 -282 -115 -118 -116 0
285 282 -115 0
285 -282 115 0
-285 282 115 0
-285 -282 -115 0
284 118 -116 0
284 -118 116 0
-284 118 116 0
-284 -118 -116 0
286 -283 285 0
286 -283 114 0
-286 283 285 0
-286 283 114 0
286 -283 113 -116 0
286 -283 -113 116 0
-286 283 113 -116 0
-286 283 -113 116 0
286 283 -285 113 116 -114 0
286 283 -285 -113 -116 -114 0
-286 -283 -285 113 116 -114 0
-286 -283 -285 -113 -116 -114 0
288 285 -113 0
288 -285 113 0
-288 285 113 0
-288 -285 -113 0
287 116 -114 0
287 -116 114 0
-287 116 114 0
-287 -116 -114 0
289 -286 288 0
289 -286 112 0
-289 286 288 0
-289 286 112 0
289 -286 111 -114 0
289 -286 -111 114 0
-289 286 111 -114 0
-289 286 -111 114 0
289 286 -288 111 114 -112 0
289 286 -288 -111 -114 -112 0
-289 -286 -288 111 114 -112 0
-289 -286 -288 -111 -114 -112 0
291 288 -111 0
291 -288 111 0
-291 288 111 0
-291 -288 -111 0
290 114 -112 0
290 -114 112 0
-290 114 112 0
-290 -114 -112 0
292 -289 291 0
292 -289 110 0
-292 289 291 0
-292 289 110 0
292 -289 109 -112 0
292 -289 -109 112 0
-292 289 109 -112 0
-292 289 -109 112 0
292 289 -291 109 112 -110 0
292 289 -291 -109 -112 -110 0
-292 -289 -291 109 112 -110 0
-292 -289 -291 -109 -112 -110 0
294 291 -109 0
294 -291 109 0
-294 291 109 0
-294 -291 -109 0
293 112 -110 0
293 -112 110 0
-293 112 110 0
-293 -112 -110 0
295 -292 294 0
295 -292 108 0
-295 292 294 0
-295 292 108 0
295 -292 107 -110 0
295 -292 -107 110 0
-295 292 107 -110 0
-295 292 -107 110 0
295 292 -294 107 110 -108 0
295 292 -294 -107 -110 -108 0
-295 -292 -294 107 110 -108 0
-295 -292 -294 -107 -110 -108 0
297 294 -107 0
297 -294 107 0
-297 294 107 0
-297 -294 -107 0
296 110 -108 0
296 -110 108 0
-296 110 108 0
-296 -110 -108 0
298 -295 297 0
298 -295 106 0
-298 295 297 0
-298 295 106 0
298 -295 105 -108 0
298 -295 -105 108 0
-298 295 105 -108 0
-298 295 -105 108 0
298 295 -297 105 108 -106 0
298 295 -297 -105 -108 -106 0
-298 -295 -297 105 108 -106 0
-298 -295 -297 -105 -108 -106 0
300 297 -105 0
300 -297 105 0
-300 297 105 0
-300 -297 -105 0
299 108 -106 0
299 -108 106 0
-299 108 106 0
-299 -108 -106 0
301 -298 300 0
301 -298 104 0
-301 298 300 0
-301 298 104 0
301 -298 103 -106 0
301 -298 -103 106 0
-301 298 103 -106 0
-301 298 -103 106 0
301 298 -300 103 106 -104 0
301 298 -300 -103 -106 -104 0
-301 -298 -300 103 106 -104 0
-301 -298 -300 -103 -106 -104 0
303 300 -103 0
303 -300 103 0
-303 300 103 0
-303 -300 -103 0
302 106 -104 0
302 -106 104 0
-302 106 104 0
-302 -106 -104 0
304 -301 303 0
304 -301 102 0
-304 301 303 0
-304 301 102 0
304 -301 101 -104 0
304 -301 -101 104 0
-304 301 101 -104 0
-304 301 -101 104 0
304 301 -303 101 104 -102 0
304 301 -303 -101 -104 -102 0
-304 -301 -303 101 104 -102 0
-304 -301 -303 -101 -104 -102 0
306 303 -101 0
306 -303 101 0
-306 303 101 0
-306 -303 -101 0
305 104 -102 0
305 -104 102 0
-305 104 102 0
-305 -104 -102 0
307 -304 306 0
307 -304 100 0
-307 304 306 0
-307 304 100 0
307 -304 99 -102 0
307 -304 -99 102 0
-307 304 99 -102 0
-307 304 -99 102 0
307 304 -306 99 102 -100 0
307 304 -306 -99 -102 -100 0
-307 -304 -306 99 102 -100 0
-307 -304 -306 -99 -102 -100 0
309 306 -99 0
309 -306 99 0
-309 306 99 0
-309 -306 -99 0
308 102 -100 0
308 -102 100 0
-308 102 100 0
-308 -102 -100 0
310 -307 309 0
310 -307 98 0
-310 307 309 0
-310 307 98 0
310 -307 97 -100 0
310 -307 -97 100 0
-310 307 97 -100 0
-310 307 -97 100 0
310 307 -309 97 100 -98 0
310 307 -309 -97 -100 -98 0
-310 -307 -309 97 100 -98 0
-310 -307 -309 -97 -100 -98 0
312 309 -97 0
312 -309 97 0
-312 309 97 0
-312 -309 -97 0
311 100 -98 0
311 -100 98 0
-311 100 98 0
-311 -100 -98 0
313 -310 312 0
313 -310 96 0
-313 310 312 0
-313 310 96 0
313 -310 95 -98 0
313 -310 -95 98 0
-313 310 95 -98 0
-313 310 -95 98 0
313 310 -312 95 98 -96 0
313 310 -312 -95 -98 -96 0
-313 -310 -312 95 98 -96 0
-313 -310 -312 -95 -98 -96 0
315 312 -95 0
315 -312 95 0
-315 312 95 0
-315 -312 -95 0
314 98 -96 0
314 -98 96 0
-314 98 96 0
-314 -98 -96 0
316 -313 315 0
316 -313 94 0
-316 313 315 0
-316 313 94 0
316 -313 93 -96 0
316 -313 -93 96 0
-316 313 93 -96 0
-316 313 -93 96 0
316 313 -315 93 96 -94 0
316 313 -315 -93 -96 -94 0
-316 -313 -315 93 96 -94 0
-316 -313 -315 -93 -96 -94 0
318 315 -93 0
318 -315 93 0
-318 315 93 0
-318 -315 -93 0
317 96 -94 0
317 -96 94 0
-317 96 94 0
-317 -96 -94 0
319 -316 318 0
319 -316 92 0
-319 316 318 0
-319 316 92 0
319 -316 91 -94 0
319 -316 -91 94 0
-319 316 91 -94 0
-319 316 -91 94 0
319 316 -318 91 94 -92 0
319 316 -318 -91 -94 -92 0
-319 -316 -318 91 94 -92 0
-319 -316 -318 -91 -94 -92 0
321 318 -91 0
321 -318 91 0
-321 318 91 0
-321 -318 -91 0
320 94 -92 0
320 -94 92 0
-320 94 92 0
-320 -94 -92 0
322 -319 321 0
322 -319 90 0
-322 319 321 0
-322 319 90 0
322 -319 89 -92 0
322 -319 -89 92 0
-322 319 89 -92 0
-322 319 -89 92 0
322 319 -321 89 92 -90 0
322 319 -321 -89 -92 -90 0
-322 -319 -321 89 92 -90 0
-322 -319 -321 -89 -92 -90 0
324 321 -89 0
324 -321 89 0
-324 321 89 0
-324 -321 -89 0
323 92 -90 0
323 -92 90 0
-323 92 90 0
-323 -92 -90 0
325 -322 324 0
325 -322 88 0
-325 322 324 0
-325 322 88 0
325 -322 87 -90 0
325 -322 -87 90 0
-325 322 87 -90 0
-325 322 -87 90 0
325 322 -324 87 90 -88 0
325 322 -324 -87 -90 -88 0
-325 -322 -324 87 90 -88 0
-325 -322 -324 -87 -90 -88 0
327 324 -87 0
327 -324 87 0
-327 324 87 0
-327 -324 -87 0
326 90 -88 0
326 -90 88 0
-326 90 88 0
-326 -90 -88 0
328 -325 327 0
328 -325 86 0
-328 325 327 0
-328 325 86 0
328 -325 85 -88 0
328 -325 -85 88 0
-328 325 85 -88 0
-328 325 -85 88 0
328 325 -327 85 88 -86 0
328 325 -327 -85 -88 -86 0
-328 -325 -327 85 88 -86 0
-328 -325 -327 -85 -88 -86 0
330 327 -85 0
330 -327 85 0
-330 327 85 0
-330 -327 -85 0
329 88 -86 0
329 -88 86 0
-329 88 86 0
-329 -88 -86 0
331 -328 330 0
331 -328 84 0
-331 328 330 0
-331 328 84 0
331 -328 83 -86 0
331 -328 -83 86 0
-331 328 83 -86 0
-331 328 -83 86 0
331 328 -330 83 86 -84 0
331 328 -330 -83 -86 -84 0
-331 -328 -330 83 86 -84 0
-331 -328 -330 -83 -86 -84 0
333 330 -83 0
333 -330 83 0
-333 330 83 0
-333 -330 -83 0
332 86 -84 0
332 -86 84 0
-332 86 84 0
-332 -86 -84 0
334 -331 333 0
334 -331 82 0
-334 331 333 0
-334 331 82 0
334 -331 81 -84 0
334 -331 -81 84 0
-334 331 81 -84 0
-334 331 -81 84 0
334 331 -333 81 84 -82 0
334 331 -333 -81 -84 -82 0
-334 -331 -333 81 84 -82 0
-334 -331 -333 -81 -84 -82 0
336 333 -81 0
336 -333 81 0
-336 333 81 0
-336 -333 -81 0
335 84 -82 0
335 -84 82 0
-335 84 82 0
-335 -84 -82 0
337 -334 336 0
337 -334 80 0
-337 334 336 0
-337 334 80 0
337 -334 79 -82 0
337 -334 -79 82 0
-337 334 79 -82 0
-337 334 -79 82 0
337 334 -336 79 82 -80 0
337 334 -336 -79 -82 -80 0
-337 -334 -336 79 82 -80 0
-337 -334 -336 -79 -82 -80 0
339 336 -79 0
339 -336 79 0
-339 336 79 0
-339 -336 -79 0
338 82 -80 0
338 -82 80 0
-338 82 80 0
-338 -82 -80 0
340 -337 339 0
340 -337 78 0
-340 337 339 0
-340 337 78 0
340 -337 77 -80 0
340 -337 -77 80 0
-340 337 77 -80 0
-340 337 -77 80 0
340 337 -339 77 80 -78 0
340 337 -339 -77 -80 -78 0
-340 -337 -339 77 80 -78 0
-340 -337 -339 -77 -80 -78 0
342 339 -77 0
342 -339 77 0
-342 339 77 0
-342 -339 -77 0
341 80 -78 0
341 -80 78 0
-341 80 78 0
-341 -80 -78 0
343 -340 342 0
343 -340 76 0
-343 340 342 0
-343 340 76 0
343 -340 75 -78 0
343 -340 -75 78 0
-343 340 75 -78 0
-343 340 -75 78 0
343 340 -342 75 78 -76 0
343 340 -342 -75 -78 -76 0
-343 -340 -342 75 78 -76 0
-343 -340 -342 -75 -78 -76 0
345 342 -75 0
345 -342 75 0
-345 342 75 0
-345 -342 -75 0
344 78 -76 0
344 -78 76 0
-344 78 76 0
-344 -78 -76 0
346 -343 345 0
346 -343 74 0
-346 343 345 0
-346 343 74 0
346 -343 73 -76 0
346 -343 -73 76 0
-346 343 73 -76 0
-346 343 -73 76 0
346 343 -345 73 76 -74 0
346 343 -345 -73 -76 -74 0
-346 -343 -345 73 76 -74 0
-346 -343 -345 -73 -76 -74 0
348 345 -73 0
348 -345 73 0
-348 345 73 0
-348 -345 -73 0
347 76 -74 0
347 -76 74 0
-347 76 74 0
-347 -76 -74 0
349 -346 348 0
349 -346 72 0
-349 346 348 0
-349 346 72 0
349 -346 71 -74 0
349 -346 -71 74 0
-349 346 71 -74 0
-349 346 -71 74 0
349 346 -348 71 74 -72 0
349 346 -348 -71 -74 -72 0
-349 -346 -348 71 74 -72 0
-349 -346 -348 -71 -74 -72 0
351 348 -71 0
351 -348 71 0
-351 348 71 0
-351 -348 -71 0
350 74 -72 0
350 -74 72 0
-350 74 72 0
-350 -74 -72 0
352 -349 351 0
352 -349 70 0
-352 349 351 0
-352 349 70 0
352 -349 69 -72 0
352 -349 -69 72 0
-352 349 69 -72 0
-352 349 -69 72 0
352 349 -351 69 72 -70 0
352 349 -351 -69 -72 -70 0
-352 -349 -351 69 72 -70 0
-352 -349 -351 -69 -72 -70 0
354 351 -69 0
354 -351 69 0
-354 351 69 0
-354 -351 -69 0
353 72 -70 0
353 -72 70 0
-353 72 70 0
-353 -72 -70 0
355 -352 354 0
355 -352 68 0
-355 352 354 0
-355 352 68 0
355 -352 67 -70 0
355 -352 -67 70 0
-355 352 67 -70 0
-355 352 -67 70 0
355 352 -354 67 70 -68 0
355 352 -354 -67 -70 -68 0
-355 -352 -354 67 70 -68 0
-355 -352 -354 -67 -70 -68 0
357 354 -67 0
357 -354 67 0
-357 354 67 0
-357 -354 -67 0
356 70 -68 0
356 -70 68 0
-356 70 68 0
-356 -70 -68 0
358 -355 357 0
358 -355 66 0
-358 355 357 0
-358 355 66 0
358 -355 65 -68 0
358 -355 -65 68 0
-358 355 65 -68 0
-358 355 -65 68 0
358 355 -357 65 68 -66 0
358 355 -357 -65 -68 -66 0
-358 -355 -357 65 68 -66 0
-358 -355 -357 -65 -68 -66 0
360 357 -65 0
360 -357 65 0
-360 357 65 0
-360 -357 -65 0
359 68 -66 0
359 -68 66 0
-359 68 66 0
-359 -68 -66 0
361 -358 360 0
361 -358 64 0
-361 358 360 0
-361 358 64 0
361 -358 63 -66 0
361 -358 -63 66 0
-361 358 63 -66 0
-361 358 -63 66 0
361 358 -360 63 66 -64 0
361 358 -360 -63 -66 -64 0
-361 -358 -360 63 66 -64 0
-361 -358 -360 -63 -66 -64 0
363 360 -63 0
363 -360 63 0
-363 360 63 0
-363 -360 -63 0
362 66 -64 0
362 -66 64 0
-362 66 64 0
-362 -66 -64 0
364 -361 363 0
364 -361 62 0
-364 361 363 0
-364 361 62 0
364 -361 61 -64 0
364 -361 -61 64 0
-364 361 61 -64 0
-364 361 -61 64 0
364 361 -363 61 64 -62 0
364 361 -363 -61 -64 -62 0
-364 -361 -363 61 64 -62 0
-364 -361 -363 -61 -64 -62 0
366 363 -61 0
366 -363 61 0
-366 363 61 0
-366 -363 -61 0
365 64 -62 0
365 -64 62 0
-365 64 62 0
-365 -64 -62 0
367 -364 366 0
367 -364 60 0
-367 364 366 0
-367 364 60 0
367 -364 59 -62 0
367 -364 -59 62 0
-367 364 59 -62 0
-367 364 -59 62 0
367 364 -366 59 62 -60 0
367 364 -366 -59 -62 -60 0
-367 -364 -366 59 62 -60 0
-367 -364 -366 -59 -62 -60 0
369 366 -59 0
369 -366 59 0
-369 366 59 0
-369 -366 -59 0
368 62 -60 0
368 -62 60 0
-368 62 60 0
-368 -62 -60 0
370 -367 369 0
370 -367 58 0
-370 367 369 0
-370 367 58 0
370 -367 57 -60 0
370 -367 -57 60 0
-370 367 57 -60 0
-370 367 -57 60 0
370 367 -369 57 60 -58 0
370 367 -369 -57 -60 -58 0
-370 -367 -369 57 60 -58 0
-370 -367 -369 -57 -60 -58 0
372 369 -57 0
372 -369 57 0
-372 369 57 0
-372 -369 -57 0
371 60 -58 0
371 -60 58 0
-371 60 58 0
-371 -60 -58 0
373 -370 372 0
373 -370 56 0
-373 370 372 0
-373 370 56 0
373 -370 55 -58 0
373 -370 -55 58 0
-373 370 55 -58 0
-373 370 -55 58 0
373 370 -372 55 58 -56 0
373 370 -372 -55 -58 -56 0
-373 -370 -372 55 58 -56 0
-373 -370 -372 -55 -58 -56 0
375 372 -55 0
375 -372 55 0
-375 372 55 0
-375 -372 -55 0
374 58 -56 0
374 -58 56 0
-374 58 56 0
-374 -58 -56 0
376 -373 375 0
376 -373 54 0
-376 373 375 0
-376 373 54 0
376 -373 53 -56 0
376 -373 -53 56 0
-376 373 53 -56 0
-376 373 -53 56 0
376 373 -375 53 56 -54 0
376 373 -375 -53 -56 -54 0
-376 -373 -375 53 56 -54 0
-376 -373 -375 -53 -56 -54 0
378 375 -53 0
378 -375 53 0
-378 375 53 0
-378 -375 -53 0
377 56 -54 0
377 -56 54 0
-377 56 54 0
-377 -56 -54 0
379 -376 378 0
379 -376 52 0
-379 376 378 0
-379 376 52 0
379 -376 51 -54 0
379 -376 -51 54 0
-379 376 51 -54 0
-379 376 -51 54 0
379 376 -378 51 54 -52 0
379 376 -378 -51 -54 -52 0
-379 -376 -378 51 54 -52 0
-379 -376 -378 -51 -54 -52 0
381 378 -51 0
381 -378 51 0
-381 378 51 0
-381 -378 -51 0
380 54 -52 0
380 -54 52 0
-380 54 52 0
-380 -54 -52 0
382 -379 381 0
382 -379 50 0
-382 379 381 0
-382 379 50 0
382 -379 49 -52 0
382 -379 -49 52 0
-382 379 49 -52 0
-382 379 -49 52 0
382 379 -381 49 52 -50 0
382 379 -381 -49 -52 -50 0
-382 -379 -381 49 52 -50 0
-382 -379 -381 -49 -52 -50 0
384 381 -49 0
384 -381 49 0
-384 381 49 0
-384 -381 -49 0
383 52 -50 0
383 -52 50 0
-383 52 50 0
-383 -52 -50 0
385 -382 384 0
385 -382 48 0
-385 382 384 0
-385 382 48 0
385 -382 47 -50 0
385 -382 -47 50 0
-385 382 47 -50 0
-385 382 -47 50 0
385 382 -384 47 50 -48 0
385 382 -384 -47 -50 -48 0
-385 -382 -384 47 50 -48 0
-385 -382 -384 -47 -50 -48 0
387 384 -47 0
387 -384 47 0
-387 384 47 0
-387 -384 -47 0
386 50 -48 0
386 -50 48 0
-386 50 48 0
-386 -50 -48 0
388 -385 387 0
388 -385 46 0
-388 385 387 0
-388 385 46 0
388 -385 45 -48 0
388 -385 -45 48 0
-388 385 45 -48 0
-388 385 -45 48 0
388 385 -387 45 48 -46 0
388 385 -387 -45 -48 -46 0
-388 -385 -387 45 48 -46 0
-388 -385 -387 -45 -48 -46 0
390 387 -45 0
390 -387 45 0
-390 387 45 0
-390 -387 -45 0
389 48 -46 0
389 -48 46 0
-389 48 46 0
-389 -48 -46 0
391 -388 390 0
391 -388 44 0
-391 388 390 0
-391 388 44 0
391 -388 43 -46 0
391 -388 -43 46 0
-391 388 43 -46 0
-391 388 -43 46 0
391 388 -390 43 46 -44 0
391 388 -390 -43 -46 -44 0
-391 -388 -390 43 46 -44 0
-391 -388 -390 -43 -46 -44 0
393 390 -43 0
393 -390 43 0
-393 390 43 0
-393 -390 -43 0
392 46 -44 0
392 -46 44 0
-392 46 44 0
-392 -46 -44 0
394 -391 393 0
394 -391 42 0
-394 391 393 0
-394 391 42 0
394 -391 41 -44 0
394 -391 -41 44 0
-394 391 41 -44 0
-394 391 -41 44 0
394 391 -393 41 44 -42 0
394 391 -393 -41 -44 -42 0
-394 -391 -393 41 44 -42 0
-394 -391 -393 -41 -44 -42 0
396 393 -41 0
396 -393 41 0
-396 393 41 0
-396 -393 -41 0
395 44 -42 0
395 -44 42 0
-395 44 42 0
-395 -44 -42 0
397 -394 396 0
397 -394 40 0
-397 394 396 0
-397 394 40 0
397 -394 39 -42 0
397 -394 -39 42 0
-397 394 39 -42 0
-397 394 -39 42 0
397 394 -396 39 42 -40 0
397 394 -396 -39 -42 -40 0
-397 -394 -396 39 42 -40 0
-397 -394 -396 -39 -42 -40 0
399 396 -39 0
399 -396 39 0
-399 396 39 0
-399 -396 -39 0
398 42 -40 0
398 -42 40 0
-398 42 40 0
-398 -42 -40 0
400 -397 399 0
400 -397 38 0
-400 397 399 0
-400 397 38 0
400 -397 37 -40 0
400 -397 -37 40 0
-400 397 37 -40 0
-400 397 -37 40 0
400 397 -399 37 40 -38 0
400 397 -399 -37 -40 -38 0
-400 -397 -399 37 40 -38 0
-400 -397 -399 -37 -40 -38 0
402 399 -37 0
402 -399 37 0
-402 399 37 0
-402 -399 -37 0
401 40 -38 0
401 -40 38 0
-401 40 38 0
-401 -40 -38 0
403 -400 402 0
403 -400 36 0
-403 400 402 0
-403 400 36 0
403 -400 35 -38 0
403 -400 -35 38 0
-403 400 35 -38 0
-403 400 -35 38 0
403 400 -402 35 38 -36 0
403 400 -402 -35 -38 -36 0
-403 -400 -402 35 38 -36 0
-403 -400 -402 -35 -38 -36 0
405 402 -35 0
405 -402 35 0
-405 402 35 0
-405 -402 -35 0
404 38 -36 0
404 -38 36 0
-404 38 36 0
-404 -38 -36 0
406 -403 405 0
406 -403 34 0
-406 403 405 0
-406 403 34 0
406 -403 33 -36 0
406 -403 -33 36 0
-406 403 33 -36 0
-406 403 -33 36 0
406 403 -405 33 36 -34 0
406 403 -405 -33 -36 -34 0
-406 -403 -405 33 36 -34 0
-406 -403 -405 -33 -36 -34 0
408 405 -33 0
408 -405 33 0
-408 405 33 0
-408 -405 -33 0
407 36 -34 0
407 -36 34 0
-407 36 34 0
-407 -36 -34 0
409 -406 408 0
409 -406 32 0
-409 406 408 0
-409 406 32 0
409 -406 31 -34 0
409 -406 -31 34 0
-409 406 31 -34 0
-409 406 -31 34 0
409 406 -408 31 34 -32 0
409 406 -408 -31 -34 -32 0
-409 -406 -408 31 34 -32 0
-409 -406 -408 -31 -34 -32 0
411 408 -31 0
411 -408 31 0
-411 408 31 0
-411 -408 -31 0
410 34 -32 0
410 -34 32 0
-410 34 32 0
-410 -34 -32 0
412 -409 411 0
412 -409 30 0
-412 409 411 0
-412 409 30 0
412 -409 29 -32 0
412 -409 -29 32 0
-412 409 29 -32 0
-412 409 -29 32 0
412 409 -411 29 32 -30 0
412 409 -411 -29 -32 -30 0
-412 -409 -411 29 32 -30 0
-412 -409 -411 -29 -32 -30 0
414 411 -29 0
414 -411 29 0
-414 411 29 0
-414 -411 -29 0
413 32 -30 0
413 -32 30 0
-413 32 30 0
-413 -32 -30 0
415 -412 414 0
415 -412 28 0
-415 412 414 0
-415 412 28 0
415 -412 27 -30 0
415 -412 -27 30 0
-415 412 27 -30 0
-415 412 -27 30 0
415 412 -414 27 30 -28 0
415 412 -414 -27 -30 -28 0
-415 -412 -414 27 30 -28 0
-415 -412 -414 -27 -30 -28 0
417 414 -27 0
417 -414 27 0
-417 414 27 0
-417 -414 -27 0
416 30 -28 0
416 -30 28 0
-416 30 28 0
-416 -30 -28 0
418 -415 417 0
418 -415 26 0
-418 415 417 0
-418 415 26 0
418 -415 25 -28 0
418 -415 -25 28 0
-418 415 25 -28 0
-418 415 -25 28 0
418 415 -417 25 28 -26 0
418 415 -417 -25 -28 -26 0
-418 -415 -417 25 28 -26 0
-418 -415 -417 -25 -28 -26 0
420 417 -25 0
420 -417 25 0
-420 417 25 0
-420 -417 -25 0
419 28 -26 0
419 -28 26 0
-419 28 26 0
-419 -28 -26 0
421 -418 420 0
421 -418 24 0
-421 418 420 0
-421 418 24 0
421 -418 23 -26 0
421 -418 -23 26 0
-421 418 23 -26 0
-421 418 -23 26 0
421 418 -420 23 26 -24 0
421 418 -420 -23 -26 -24 0
-421 -418 -420 23 26 -24 0
-421 -418 -420 -23 -26 -24 0
423 420 -23 0
423 -420 23 0
-423 420 23 0
-423 -420 -23 0
422 26 -24 0
422 -26 24 0
-422 26 24 0
-422 -26 -24 0
424 -421 423 0
424 -421 22 0
-424 421 423 0
-424 421 22 0
424 -421 21 -24 0
424 -421 -21 24 0
-424 421 21 -24 0
-424 421 -21 24 0
424 421 -423 21 24 -22 0
424 421 -423 -21 -24 -22 0
-424 -421 -423 21 24 -22 0
-424 -421 -423 -21 -24 -22 0
426 423 -21 0
426 -423 21 0
-426 423 21 0
-426 -423 -21 0
425 24 -22 0
425 -24 22 0
-425 24 22 0
-425 -24 -22 0
427 -424 426 0
427 -424 20 0
-427 424 426 0
-427 424 20 0
427 -424 19 -22 0
427 -424 -19 22 0
-427 424 19 -22 0
-427 424 -19 22 0
427 424 -426 19 22 -20 0
427 424 -426 -19 -22 -20 0
-427 -424 -426 19 22 -20 0
-427 -424 -426 -19 -22 -20 0
429 426 -19 0
429 -426 19 0
-429 426 19 0
-429 -426 -19 0
428 22 -20 0
428 -22 20 0
-428 22 20 0
-428 -22 -20 0
430 -427 429 0
430 -427 18 0
-430 427 429 0
-430 427 18 0
430 -427 17 -20 0
430 -427 -17 20 0
-430 427 17 -20 0
-430 427 -17 20 0
430 427 -429 17 20 -18 0
430 427 -429 -17 -20 -18 0
-430 -427 -429 17 20 -18 0
-430 -427 -429 -17 -20 -18 0
432 429 -17 0
432 -429 17 0
-432 429 17 0
-432 -429 -17 0
431 20 -18 0
431 -20 18 0
-431 20 18 0
-431 -20 -18 0
433 -430 432 0
433 -430 16 0
-433 430 432 0
-433 430 16 0
433 -430 15 -18 0
433 -430 -15 18 0
-433 430 15 -18 0
-433 430 -15 18 0
433 430 -432 15 18 -16 0
433 430 -432 -15 -18 -16 0
-433 -430 -432 15 18 -16 0
-433 -430 -432 -15 -18 -16 0
435 432 -15 0
435 -432 15 0
-435 432 15 0
-435 -432 -15 0
434 18 -16 0
434 -18 16 0
-434 18 16 0
-434 -18 -16 0
436 -433 435 0
436 -433 14 0
-436 433 435 0
-436 433 14 0
436 -433 13 -16 0
436 -433 -13 16 0
-436 433 13 -16 0
-436 433 -13 16 0
436 433 -435 13 16 -14 0
436 433 -435 -13 -16 -14 0
-436 -433 -435 13 16 -14 0
-436 -433 -435 -13 -16 -14 0
438 435 -13 0
438 -435 13 0
-438 435 13 0
-438 -435 -13 0
437 16 -14 0
437 -16 14 0
-437 16 14 0
-437 -16 -14 0
439 -436 438 0
439 -436 12 0
-439 436 438 0
-439 436 12 0
439 -436 11 -14 0
439 -436 -11 14 0
-439 436 11 -14 0
-439 436 -11 14 0
439 436 -438 11 14 -12 0
439 436 -438 -11 -14 -12 0
-439 -436 -438 11 14 -12 0
-439 -436 -438 -11 -14 -12 0
441 438 -11 0
441 -438 11 0
-441 438 11 0
-441 -438 -11 0
440 14 -12 0
440 -14 12 0
-440 14 12 0
-440 -14 -12 0
442 -439 441 0
442 -439 10 0
-442 439 441 0
-442 439 10 0
442 -439 9 -12 0
442 -439 -9 12 0
-442 439 9 -12 0
-442 439 -9 12 0
442 439 -441 9 12 -10 0
442 439 -441 -9 -12 -10 0
-442 -439 -441 9 12 -10 0
-442 -439 -441 -9 -12 -10 0
444 441 -9 0
444 -441 9 0
-444 441 9 0
-444 -441 -9 0
443 12 -10 0
443 -12 10 0
-443 12 10 0
-443 -12 -10 0
445 -442 444 0
445 -442 8 0
-445 442 444 0
-445 442 8 0
445 -442 7 -10 0
445 -442 -7 10 0
-445 442 7 -10 0
-445 442 -7 10 0
445 442 -444 7 10 -8 0
445 442 -444 -7 -10 -8 0
-445 -442 -444 7 10 -8 0
-445 -442 -444 -7 -10 -8 0
447 444 -7 0
447 -444 7 0
-447 444 7 0
-447 -444 -7 0
446 10 -8 0
446 -10 8 0
-446 10 8 0
-446 -10 -8 0
448 -445 447 0
448 -445 6 0
-448 445 447 0
-448 445 6 0
448 -445 5 -8 0
448 -445 -5 8 0
-448 445 5 -8 0
-448 445 -5 8 0
448 445 -447 5 8 -6 0
448 445 -447 -5 -8 -6 0
-448 -445 -447 5 8 -6 0
-448 -445 -447 -5 -8 -6 0
450 447 -5 0
450 -447 5 0
-450 447 5 0
-450 -447 -5 0
449 8 -6 0
449 -8 6 0
-449 8 6 0
-449 -8 -6 0
451 -448 450 0
451 -448 4 0
-451 448 450 0
-451 448 4 0
451 -448 3 -6 0
451 -448 -3 6 0
-451 448 3 -6 0
-451 448 -3 6 0
451 448 -450 3 6 -4 0
451 448 -450 -3 -6 -4 0
-451 -448 -450 3 6 -4 0
-451 -448 -450 -3 -6 -4 0
453 450 -3 0
453 -450 3 0
-453 450 3 0
-453 -450 -3 0
452 6 -4 0
452 -6 4 0
-452 6 4 0
-452 -6 -4 0
454 -451 453 0
454 -451 2 0
-454 451 453 0
-454 451 2 0
454 -451 1 -4 0
454 -451 -1 4 0
-454 451 1 -4 0
-454 451 -1 4 0
454 451 -453 1 4 -2 0
454 451 -453 -1 -4 -2 0
-454 -451 -453 1 4 -2 0
-454 -451 -453 -1 -4 -2 0
456 453 -1 0
456 -453 1 0
-456 453 1 0
-456 -453 -1 0
455 4 -2 0
455 -4 2 0
-455 4 2 0
-455 -4 -2 0
-456 0
-453 0
-455 0
-450 0
-452 0
-447 0
-449 0
-444 0
-446 0
-441 0
-443 0
-438 0
-440 0
-435 0
-437 0
-432 0
-434 0
-429 0
-431 0
-426 0
-428 0
-423 0
-425 0
-420 0
-422 0
-417 0
-419 0
-414 0
-416 0
-411 0
-413 0
-408 0
-410 0
-405 0
-407 0
-402 0
-404 0
-399 0
-401 0
-396 0
-398 0
-393 0
-395 0
-390 0
-392 0
-387 0
-389 0
-384 0
-386 0
-381 0
-383 0
-378 0
-380 0
-375 0
-377 0
-372 0
-374 0
-369 0
-371 0
-366 0
-368 0
-363 0
-365 0
-360 0
-362 0
-357 0
-359 0
-354 0
-356 0
-351 0
-353 0
-348 0
-350 0
-345 0
-347 0
-342 0
-344 0
-339 0
-341 0
-336 0
-338 0
-333 0
-335 0
-330 0
-332 0
-327 0
-329 0
-324 0
-326 0
-321 0
-323 0
-318 0
-320 0
-315 0
-317 0
-312 0
-314 0
-309 0
-311 0
-306 0
-308 0
-303 0
-305 0
-300 0
-302 0
-297 0
-299 0
-294 0
-296 0
-291 0
-293 0
-288 0
-290 0
-285 0
-287 0
-282 0
-284 0
-279 0
-281 0
-276 0
-278 0
-273 0
-275 0
-270 0
-272 0
-267 0
-269 0
-264 0
-266 0
-261 0
-263 0
-258 0
-260 0
-255 0
-257 0
-252 0
-254 0
-249 0
-251 0
-246 0
-248 0
-243 0
-245 0
-240 0
-242 0
-237 0
-239 0
-234 0
-236 0
-231 0
-233 0
-228 0
-230 0
-225 0
-227 0
-222 0
-224 0
-219 0
-221 0
-216 0
-218 0
-213 0
-215 0
-210 0
-212 0
-207 0
-209 0
-204 0
-206 0
-201 0
-203 0
-198 0
-200 0
-195 0
-197 0
-192 0
-194 0
-185 0
-191 0
